data/processed_heuristic-threshold/instances/1/9/ds_709_courier_4474/pairwise.tsp
NAME: ds_709_courier_4474
TYPE: TSP
COMMENT: nil
DIMENSION: 10
EDGE_WEIGHT_TYPE: EXPLICIT
EDGE_WEIGHT_FORMAT: FULL_MATRIX
EDGE_WEIGHT_SECTION
9999 1713 1199 1559 1463 1181 1461 2028 1698 784 
1713 9999 1008 197 549 879 1541 560 22 2005 
1199 1008 9999 993 1211 140 573 1547 986 1841 
1559 197 993 9999 366 856 1553 561 197 1814 
1463 549 1211 366 9999 1072 1784 575 555 1565 
1181 879 140 856 1072 9999 713 1412 858 1780 
1461 1541 573 1553 1784 713 9999 2094 1518 2206 
2028 560 1547 561 575 1412 2094 9999 582 2121 
1698 22 986 197 555 858 1518 582 9999 1998 
784 2005 1841 1814 1565 1780 2206 2121 1998 9999 
