data/processed_heuristic-threshold/instances/1/9/ds_709_courier_4474/pairwise.sol
10
0 6 2 5 3 8 1 7 4 9 
